c description: Random 2-CNF over 15 variables and 65 clauses
c generator: CNFgen (0.9.0)
c copyright: (C) 2012-2020 Massimo Lauria <massimo.lauria@uniroma1.it>
c url: https://massimolauria.net/cnfgen
c
p cnf 15 65
-2 10 0
4 -13 0
-8 -14 0
12 14 0
-5 -8 0
-6 -14 0
8 12 0
-2 -10 0
-2 -14 0
-5 -10 0
-7 -14 0
3 8 0
10 -14 0
-5 -14 0
10 14 0
-10 15 0
1 14 0
6 12 0
2 9 0
-1 10 0
-4 -10 0
-4 -14 0
-3 -6 0
-1 -11 0
1 2 0
-6 -10 0
-4 14 0
1 -10 0
4 15 0
-7 12 0
4 -14 0
2 -15 0
1 -14 0
2 -13 0
3 -5 0
-8 -12 0
7 9 0
-8 -13 0
-4 -7 0
12 -15 0
-6 11 0
9 -14 0
-11 15 0
-1 14 0
1 13 0
4 12 0
2 -14 0
-1 -7 0
-3 4 0
-10 -13 0
-3 10 0
-3 -8 0
-10 14 0
8 -14 0
7 -14 0
-3 -15 0
10 -11 0
7 -10 0
-10 -15 0
3 -8 0
5 9 0
3 -6 0
-4 12 0
-10 -11 0
5 14 0